VER
4

OBJSENSE
MIN

VAR
38 1
F 38

CON
4236 4
SVECQRE 4161
SVECQE 38
SVECPSD 36
L= 1

OBJACOORD
2
0 1.0
1 1.0

ACOORD
378
0 0 1.0
1 2 1.0
37 3 1.0
45 4 1.0
137 5 1.0
145 6 1.0
153 7 1.0
301 8 1.0
309 9 1.0
317 10 1.0
325 11 1.0
529 12 1.0
537 13 1.0
545 14 1.0
553 15 1.0
561 16 1.0
821 17 1.0
829 18 1.0
837 19 1.0
845 20 1.0
853 21 1.0
861 22 1.0
1177 23 1.0
1185 24 1.0
1193 25 1.0
1201 26 1.0
1209 27 1.0
1217 28 1.0
1225 29 1.0
1597 30 1.0
1605 31 1.0
1613 32 1.0
1621 33 1.0
1629 34 1.0
1637 35 1.0
1645 36 1.0
1653 37 1.0
2081 2 1.0
2083 2 1.0
2086 2 1.0
2090 2 1.0
2095 2 1.0
2101 2 1.0
2108 2 1.0
2116 2 1.0
2117 3 1.0
2125 4 1.0
2127 3 1.0
2135 4 1.0
2138 3 1.0
2146 4 1.0
2150 3 1.0
2158 4 1.0
2163 3 1.0
2171 4 1.0
2177 3 1.0
2185 4 1.0
2192 3 1.0
2200 4 1.0
2208 3 1.0
2216 4 1.0
2217 5 1.0
2225 6 1.0
2233 7 1.0
2235 5 1.0
2243 6 1.0
2251 7 1.0
2254 5 1.0
2262 6 1.0
2270 7 1.0
2274 5 1.0
2282 6 1.0
2290 7 1.0
2295 5 1.0
2303 6 1.0
2311 7 1.0
2317 5 1.0
2325 6 1.0
2333 7 1.0
2340 5 1.0
2348 6 1.0
2356 7 1.0
2364 5 1.0
2372 6 1.0
2380 7 1.0
2381 8 1.0
2389 9 1.0
2397 10 1.0
2405 11 1.0
2407 8 1.0
2415 9 1.0
2423 10 1.0
2431 11 1.0
2434 8 1.0
2442 9 1.0
2450 10 1.0
2458 11 1.0
2462 8 1.0
2470 9 1.0
2478 10 1.0
2486 11 1.0
2491 8 1.0
2499 9 1.0
2507 10 1.0
2515 11 1.0
2521 8 1.0
2529 9 1.0
2537 10 1.0
2545 11 1.0
2552 8 1.0
2560 9 1.0
2568 10 1.0
2576 11 1.0
2584 8 1.0
2592 9 1.0
2600 10 1.0
2608 11 1.0
2609 12 1.0
2617 13 1.0
2625 14 1.0
2633 15 1.0
2641 16 1.0
2643 12 1.0
2651 13 1.0
2659 14 1.0
2667 15 1.0
2675 16 1.0
2678 12 1.0
2686 13 1.0
2694 14 1.0
2702 15 1.0
2710 16 1.0
2714 12 1.0
2722 13 1.0
2730 14 1.0
2738 15 1.0
2746 16 1.0
2751 12 1.0
2759 13 1.0
2767 14 1.0
2775 15 1.0
2783 16 1.0
2789 12 1.0
2797 13 1.0
2805 14 1.0
2813 15 1.0
2821 16 1.0
2828 12 1.0
2836 13 1.0
2844 14 1.0
2852 15 1.0
2860 16 1.0
2868 12 1.0
2876 13 1.0
2884 14 1.0
2892 15 1.0
2900 16 1.0
2901 17 1.0
2909 18 1.0
2917 19 1.0
2925 20 1.0
2933 21 1.0
2941 22 1.0
2943 17 1.0
2951 18 1.0
2959 19 1.0
2967 20 1.0
2975 21 1.0
2983 22 1.0
2986 17 1.0
2994 18 1.0
3002 19 1.0
3010 20 1.0
3018 21 1.0
3026 22 1.0
3030 17 1.0
3038 18 1.0
3046 19 1.0
3054 20 1.0
3062 21 1.0
3070 22 1.0
3075 17 1.0
3083 18 1.0
3091 19 1.0
3099 20 1.0
3107 21 1.0
3115 22 1.0
3121 17 1.0
3129 18 1.0
3137 19 1.0
3145 20 1.0
3153 21 1.0
3161 22 1.0
3168 17 1.0
3176 18 1.0
3184 19 1.0
3192 20 1.0
3200 21 1.0
3208 22 1.0
3216 17 1.0
3224 18 1.0
3232 19 1.0
3240 20 1.0
3248 21 1.0
3256 22 1.0
3257 23 1.0
3265 24 1.0
3273 25 1.0
3281 26 1.0
3289 27 1.0
3297 28 1.0
3305 29 1.0
3307 23 1.0
3315 24 1.0
3323 25 1.0
3331 26 1.0
3339 27 1.0
3347 28 1.0
3355 29 1.0
3358 23 1.0
3366 24 1.0
3374 25 1.0
3382 26 1.0
3390 27 1.0
3398 28 1.0
3406 29 1.0
3410 23 1.0
3418 24 1.0
3426 25 1.0
3434 26 1.0
3442 27 1.0
3450 28 1.0
3458 29 1.0
3463 23 1.0
3471 24 1.0
3479 25 1.0
3487 26 1.0
3495 27 1.0
3503 28 1.0
3511 29 1.0
3517 23 1.0
3525 24 1.0
3533 25 1.0
3541 26 1.0
3549 27 1.0
3557 28 1.0
3565 29 1.0
3572 23 1.0
3580 24 1.0
3588 25 1.0
3596 26 1.0
3604 27 1.0
3612 28 1.0
3620 29 1.0
3628 23 1.0
3636 24 1.0
3644 25 1.0
3652 26 1.0
3660 27 1.0
3668 28 1.0
3676 29 1.0
3677 30 1.0
3685 31 1.0
3693 32 1.0
3701 33 1.0
3709 34 1.0
3717 35 1.0
3725 36 1.0
3733 37 1.0
3735 30 1.0
3743 31 1.0
3751 32 1.0
3759 33 1.0
3767 34 1.0
3775 35 1.0
3783 36 1.0
3791 37 1.0
3794 30 1.0
3802 31 1.0
3810 32 1.0
3818 33 1.0
3826 34 1.0
3834 35 1.0
3842 36 1.0
3850 37 1.0
3854 30 1.0
3862 31 1.0
3870 32 1.0
3878 33 1.0
3886 34 1.0
3894 35 1.0
3902 36 1.0
3910 37 1.0
3915 30 1.0
3923 31 1.0
3931 32 1.0
3939 33 1.0
3947 34 1.0
3955 35 1.0
3963 36 1.0
3971 37 1.0
3977 30 1.0
3985 31 1.0
3993 32 1.0
4001 33 1.0
4009 34 1.0
4017 35 1.0
4025 36 1.0
4033 37 1.0
4040 30 1.0
4048 31 1.0
4056 32 1.0
4064 33 1.0
4072 34 1.0
4080 35 1.0
4088 36 1.0
4096 37 1.0
4104 30 1.0
4112 31 1.0
4120 32 1.0
4128 33 1.0
4136 34 1.0
4144 35 1.0
4152 36 1.0
4160 37 1.0
4161 1 1.0
4163 2 1.0
4163 4 1.0
4163 7 1.0
4163 11 1.0
4163 16 1.0
4163 22 1.0
4163 29 1.0
4163 37 1.0
4199 2 1.0
4200 3 1.0
4201 4 1.0
4202 5 1.0
4203 6 1.0
4204 7 1.0
4205 8 1.0
4206 9 1.0
4207 10 1.0
4208 11 1.0
4209 12 1.0
4210 13 1.0
4211 14 1.0
4212 15 1.0
4213 16 1.0
4214 17 1.0
4215 18 1.0
4216 19 1.0
4217 20 1.0
4218 21 1.0
4219 22 1.0
4220 23 1.0
4221 24 1.0
4222 25 1.0
4223 26 1.0
4224 27 1.0
4225 28 1.0
4226 29 1.0
4227 30 1.0
4228 31 1.0
4229 32 1.0
4230 33 1.0
4231 34 1.0
4232 35 1.0
4233 36 1.0
4234 37 1.0
4235 2 1.0
4235 4 1.0
4235 7 1.0
4235 11 1.0
4235 16 1.0
4235 22 1.0
4235 29 1.0
4235 37 1.0

BCOORD
2
4162 -1.0
4235 1.0
